certificates/rado_a15_c246_N56.cnf
c Rad2 upper bound instance: x1 + 15*x2 - x3 = 246, interval [1,56]
p cnf 56 414
1 10 17 0
-1 -10 -17 0
1 18 25 0
-1 -18 -25 0
1 19 40 0
-1 -19 -40 0
1 20 55 0
-1 -20 -55 0
2 11 17 0
-2 -11 -17 0
2 18 26 0
-2 -18 -26 0
2 19 41 0
-2 -19 -41 0
2 20 56 0
-2 -20 -56 0
3 12 17 0
-3 -12 -17 0
3 18 27 0
-3 -18 -27 0
3 19 42 0
-3 -19 -42 0
4 13 17 0
-4 -13 -17 0
4 18 28 0
-4 -18 -28 0
4 19 43 0
-4 -19 -43 0
5 14 17 0
-5 -14 -17 0
5 18 29 0
-5 -18 -29 0
5 19 44 0
-5 -19 -44 0
6 15 17 0
-6 -15 -17 0
6 18 30 0
-6 -18 -30 0
6 19 45 0
-6 -19 -45 0
1 7 16 0
-1 -7 -16 0
7 16 17 0
-7 -16 -17 0
7 18 31 0
-7 -18 -31 0
7 19 46 0
-7 -19 -46 0
2 8 16 0
-2 -8 -16 0
8 17 0
-8 -17 0
8 18 32 0
-8 -18 -32 0
8 19 47 0
-8 -19 -47 0
3 9 16 0
-3 -9 -16 0
9 17 18 0
-9 -17 -18 0
9 18 33 0
-9 -18 -33 0
9 19 48 0
-9 -19 -48 0
4 10 16 0
-4 -10 -16 0
10 17 19 0
-10 -17 -19 0
10 18 34 0
-10 -18 -34 0
10 19 49 0
-10 -19 -49 0
5 11 16 0
-5 -11 -16 0
11 17 20 0
-11 -17 -20 0
11 18 35 0
-11 -18 -35 0
11 19 50 0
-11 -19 -50 0
6 12 16 0
-6 -12 -16 0
12 17 21 0
-12 -17 -21 0
12 18 36 0
-12 -18 -36 0
12 19 51 0
-12 -19 -51 0
7 13 16 0
-7 -13 -16 0
13 17 22 0
-13 -17 -22 0
13 18 37 0
-13 -18 -37 0
13 19 52 0
-13 -19 -52 0
8 14 16 0
-8 -14 -16 0
14 17 23 0
-14 -17 -23 0
14 18 38 0
-14 -18 -38 0
14 19 53 0
-14 -19 -53 0
9 15 16 0
-9 -15 -16 0
15 17 24 0
-15 -17 -24 0
15 18 39 0
-15 -18 -39 0
15 19 54 0
-15 -19 -54 0
10 16 0
-10 -16 0
16 17 25 0
-16 -17 -25 0
16 18 40 0
-16 -18 -40 0
16 19 55 0
-16 -19 -55 0
11 16 17 0
-11 -16 -17 0
17 26 0
-17 -26 0
17 18 41 0
-17 -18 -41 0
17 19 56 0
-17 -19 -56 0
12 16 18 0
-12 -16 -18 0
17 18 27 0
-17 -18 -27 0
18 42 0
-18 -42 0
13 16 19 0
-13 -16 -19 0
17 19 28 0
-17 -19 -28 0
18 19 43 0
-18 -19 -43 0
14 16 20 0
-14 -16 -20 0
17 20 29 0
-17 -20 -29 0
18 20 44 0
-18 -20 -44 0
15 16 21 0
-15 -16 -21 0
17 21 30 0
-17 -21 -30 0
18 21 45 0
-18 -21 -45 0
1 15 22 0
-1 -15 -22 0
16 22 0
-16 -22 0
17 22 31 0
-17 -22 -31 0
18 22 46 0
-18 -22 -46 0
2 15 23 0
-2 -15 -23 0
16 17 23 0
-16 -17 -23 0
17 23 32 0
-17 -23 -32 0
18 23 47 0
-18 -23 -47 0
3 15 24 0
-3 -15 -24 0
16 18 24 0
-16 -18 -24 0
17 24 33 0
-17 -24 -33 0
18 24 48 0
-18 -24 -48 0
4 15 25 0
-4 -15 -25 0
16 19 25 0
-16 -19 -25 0
17 25 34 0
-17 -25 -34 0
18 25 49 0
-18 -25 -49 0
5 15 26 0
-5 -15 -26 0
16 20 26 0
-16 -20 -26 0
17 26 35 0
-17 -26 -35 0
18 26 50 0
-18 -26 -50 0
6 15 27 0
-6 -15 -27 0
16 21 27 0
-16 -21 -27 0
17 27 36 0
-17 -27 -36 0
18 27 51 0
-18 -27 -51 0
7 15 28 0
-7 -15 -28 0
16 22 28 0
-16 -22 -28 0
17 28 37 0
-17 -28 -37 0
18 28 52 0
-18 -28 -52 0
8 15 29 0
-8 -15 -29 0
16 23 29 0
-16 -23 -29 0
17 29 38 0
-17 -29 -38 0
18 29 53 0
-18 -29 -53 0
9 15 30 0
-9 -15 -30 0
16 24 30 0
-16 -24 -30 0
17 30 39 0
-17 -30 -39 0
18 30 54 0
-18 -30 -54 0
10 15 31 0
-10 -15 -31 0
16 25 31 0
-16 -25 -31 0
17 31 40 0
-17 -31 -40 0
18 31 55 0
-18 -31 -55 0
11 15 32 0
-11 -15 -32 0
16 26 32 0
-16 -26 -32 0
17 32 41 0
-17 -32 -41 0
18 32 56 0
-18 -32 -56 0
12 15 33 0
-12 -15 -33 0
16 27 33 0
-16 -27 -33 0
17 33 42 0
-17 -33 -42 0
13 15 34 0
-13 -15 -34 0
16 28 34 0
-16 -28 -34 0
17 34 43 0
-17 -34 -43 0
14 15 35 0
-14 -15 -35 0
16 29 35 0
-16 -29 -35 0
17 35 44 0
-17 -35 -44 0
15 36 0
-15 -36 0
16 30 36 0
-16 -30 -36 0
17 36 45 0
-17 -36 -45 0
1 14 37 0
-1 -14 -37 0
15 16 37 0
-15 -16 -37 0
16 31 37 0
-16 -31 -37 0
17 37 46 0
-17 -37 -46 0
2 14 38 0
-2 -14 -38 0
15 17 38 0
-15 -17 -38 0
16 32 38 0
-16 -32 -38 0
17 38 47 0
-17 -38 -47 0
3 14 39 0
-3 -14 -39 0
16 33 39 0
-16 -33 -39 0
17 39 48 0
-17 -39 -48 0
4 14 40 0
-4 -14 -40 0
15 19 40 0
-15 -19 -40 0
16 34 40 0
-16 -34 -40 0
17 40 49 0
-17 -40 -49 0
5 14 41 0
-5 -14 -41 0
15 20 41 0
-15 -20 -41 0
16 35 41 0
-16 -35 -41 0
17 41 50 0
-17 -41 -50 0
6 14 42 0
-6 -14 -42 0
15 21 42 0
-15 -21 -42 0
16 36 42 0
-16 -36 -42 0
17 42 51 0
-17 -42 -51 0
7 14 43 0
-7 -14 -43 0
15 22 43 0
-15 -22 -43 0
16 37 43 0
-16 -37 -43 0
17 43 52 0
-17 -43 -52 0
8 14 44 0
-8 -14 -44 0
15 23 44 0
-15 -23 -44 0
16 38 44 0
-16 -38 -44 0
17 44 53 0
-17 -44 -53 0
9 14 45 0
-9 -14 -45 0
15 24 45 0
-15 -24 -45 0
16 39 45 0
-16 -39 -45 0
17 45 54 0
-17 -45 -54 0
10 14 46 0
-10 -14 -46 0
15 25 46 0
-15 -25 -46 0
16 40 46 0
-16 -40 -46 0
17 46 55 0
-17 -46 -55 0
11 14 47 0
-11 -14 -47 0
15 26 47 0
-15 -26 -47 0
16 41 47 0
-16 -41 -47 0
17 47 56 0
-17 -47 -56 0
12 14 48 0
-12 -14 -48 0
15 27 48 0
-15 -27 -48 0
16 42 48 0
-16 -42 -48 0
13 14 49 0
-13 -14 -49 0
15 28 49 0
-15 -28 -49 0
16 43 49 0
-16 -43 -49 0
14 50 0
-14 -50 0
15 29 50 0
-15 -29 -50 0
16 44 50 0
-16 -44 -50 0
14 15 51 0
-14 -15 -51 0
15 30 51 0
-15 -30 -51 0
16 45 51 0
-16 -45 -51 0
1 13 52 0
-1 -13 -52 0
14 16 52 0
-14 -16 -52 0
15 31 52 0
-15 -31 -52 0
16 46 52 0
-16 -46 -52 0
2 13 53 0
-2 -13 -53 0
14 17 53 0
-14 -17 -53 0
15 32 53 0
-15 -32 -53 0
16 47 53 0
-16 -47 -53 0
3 13 54 0
-3 -13 -54 0
14 18 54 0
-14 -18 -54 0
15 33 54 0
-15 -33 -54 0
16 48 54 0
-16 -48 -54 0
4 13 55 0
-4 -13 -55 0
14 19 55 0
-14 -19 -55 0
15 34 55 0
-15 -34 -55 0
16 49 55 0
-16 -49 -55 0
5 13 56 0
-5 -13 -56 0
14 20 56 0
-14 -20 -56 0
15 35 56 0
-15 -35 -56 0
16 50 56 0
-16 -50 -56 0
