certificates/rado_a15_c246_N56.drat
-50 -56 0
-54 19 -56 0
19 -56 0
d -54 19 -56 0
-56 0
-14 -19 0
-19 0
17 0
-8 0
-26 0
47 0
-38 0
14 0
-50 0
-5 0
-23 0
-53 0
-11 0
16 0
0
